TITLE
Cooling Demonstrator target simulation
DEFAULTS                                                              PRECISIO
BEAM           -14.0       0.0       0.0    -0.471    -0.471          PROTON
BEAMPOS          0.0       0.0     -10.0       0.0       0.0
MGNFIELD        30.0      0.05      0.05       0.0       0.0       0.0
FREE
GEOBEGIN , , , , , , , COMBNAME
    0    0
RPP BLKBODY -60.0 60.0 -60.0 60.0 -800.0 800.0
* WorldL World
RPP B000001 -30.0 30.0 -30.0 30.0 -400.0 400.0
$start_transform T0002
* hornConPhys hornCon hornConCyl
ZCC B000201 0 0 15.0
$end_transform
$start_transform T0002
* hornConPhys hornCon hornConCyl
XYP B000202 -100.0
$end_transform
$start_transform T0002
* hornConPhys hornCon hornConCyl
XYP B000203 100.0
$end_transform
$start_transform T0002
* hornConPhys hornCon hornConCyl
ZCC B000204 0 0 2.0
$end_transform
* hornConPhys hornCon hornEllIC
TRC B000300 0.0 0.0 200.0 0.0 0.0 -5.5 2.0 3.564344650402309
* hornConPhys hornCon hornEllIC
TRC B000301 0.0 0.0 194.5 0.0 0.0 -5.5 3.564344650402309 5.0901699437494745
* hornConPhys hornCon hornEllIC
TRC B000302 0.0 0.0 189.0 0.0 0.0 -5.5 5.0901699437494745 6.5399049973954675
* hornConPhys hornCon hornEllIC
TRC B000303 0.0 0.0 183.5 0.0 0.0 -5.5 6.5399049973954675 7.877852522924733
* hornConPhys hornCon hornEllIC
TRC B000304 0.0 0.0 178.0 0.0 0.0 -5.5 7.877852522924733 9.071067811865474
* hornConPhys hornCon hornEllIC
TRC B000305 0.0 0.0 172.5 0.0 0.0 -5.5 9.071067811865474 10.090169943749475
* hornConPhys hornCon hornEllIC
TRC B000306 0.0 0.0 167.0 0.0 0.0 -5.5 10.090169943749475 10.910065241883679
* hornConPhys hornCon hornEllIC
TRC B000307 0.0 0.0 161.5 0.0 0.0 -5.5 10.910065241883679 11.510565162951536
* hornConPhys hornCon hornEllIC
TRC B000308 0.0 0.0 156.0 0.0 0.0 -5.5 11.510565162951536 11.876883405951379
* hornConPhys hornCon hornEllIC
TRC B000309 0.0 0.0 150.5 0.0 0.0 -5.5 11.876883405951379 12.0
* hornConPhys hornCon hornEllIC
TRC B000310 0.0 0.0 145.0 0.0 0.0 -5.5 12.0 11.876883405951379
* hornConPhys hornCon hornEllIC
TRC B000311 0.0 0.0 139.5 0.0 0.0 -5.5 11.876883405951379 11.510565162951536
* hornConPhys hornCon hornEllIC
TRC B000312 0.0 0.0 134.0 0.0 0.0 -5.5 11.510565162951536 10.910065241883679
* hornConPhys hornCon hornEllIC
TRC B000313 0.0 0.0 128.5 0.0 0.0 -5.5 10.910065241883679 10.090169943749475
* hornConPhys hornCon hornEllIC
TRC B000314 0.0 0.0 123.0 0.0 0.0 -5.5 10.090169943749475 9.071067811865476
* hornConPhys hornCon hornEllIC
TRC B000315 0.0 0.0 117.5 0.0 0.0 -5.5 9.071067811865476 7.877852522924733
* hornConPhys hornCon hornEllIC
TRC B000316 0.0 0.0 112.0 0.0 0.0 -5.5 7.877852522924733 6.539904997395469
* hornConPhys hornCon hornEllIC
TRC B000317 0.0 0.0 106.5 0.0 0.0 -5.5 6.539904997395469 5.090169943749476
* hornConPhys hornCon hornEllIC
TRC B000318 0.0 0.0 101.0 0.0 0.0 -5.5 5.090169943749476 3.56434465040231
* hornConPhys hornCon hornEllIC
TRC B000319 0.0 0.0 95.5 0.0 0.0 -5.5 3.56434465040231 2.0000000000000013
$start_transform T0004
* hornArPhys hornAr hornArCyl
ZCC B000401 0 0 14.75
$end_transform
$start_transform T0004
* hornArPhys hornAr hornArCyl
XYP B000402 -99.75
$end_transform
$start_transform T0004
* hornArPhys hornAr hornArCyl
XYP B000403 99.75
$end_transform
$start_transform T0004
* hornArPhys hornAr hornArCyl
ZCC B000404 0 0 2.25
$end_transform
* hornArPhys hornAr hornEllAr
TRC B000500 0.0 0.0 200.0 0.0 0.0 -5.5 2.25 3.814344650402309
* hornArPhys hornAr hornEllAr
TRC B000501 0.0 0.0 194.5 0.0 0.0 -5.5 3.814344650402309 5.3401699437494745
* hornArPhys hornAr hornEllAr
TRC B000502 0.0 0.0 189.0 0.0 0.0 -5.5 5.3401699437494745 6.7899049973954675
* hornArPhys hornAr hornEllAr
TRC B000503 0.0 0.0 183.5 0.0 0.0 -5.5 6.7899049973954675 8.127852522924732
* hornArPhys hornAr hornEllAr
TRC B000504 0.0 0.0 178.0 0.0 0.0 -5.5 8.127852522924732 9.321067811865474
* hornArPhys hornAr hornEllAr
TRC B000505 0.0 0.0 172.5 0.0 0.0 -5.5 9.321067811865474 10.340169943749475
* hornArPhys hornAr hornEllAr
TRC B000506 0.0 0.0 167.0 0.0 0.0 -5.5 10.340169943749475 11.160065241883679
* hornArPhys hornAr hornEllAr
TRC B000507 0.0 0.0 161.5 0.0 0.0 -5.5 11.160065241883679 11.760565162951536
* hornArPhys hornAr hornEllAr
TRC B000508 0.0 0.0 156.0 0.0 0.0 -5.5 11.760565162951536 12.126883405951379
* hornArPhys hornAr hornEllAr
TRC B000509 0.0 0.0 150.5 0.0 0.0 -5.5 12.126883405951379 12.25
* hornArPhys hornAr hornEllAr
TRC B000510 0.0 0.0 145.0 0.0 0.0 -5.5 12.25 12.126883405951379
* hornArPhys hornAr hornEllAr
TRC B000511 0.0 0.0 139.5 0.0 0.0 -5.5 12.126883405951379 11.760565162951536
* hornArPhys hornAr hornEllAr
TRC B000512 0.0 0.0 134.0 0.0 0.0 -5.5 11.760565162951536 11.160065241883679
* hornArPhys hornAr hornEllAr
TRC B000513 0.0 0.0 128.5 0.0 0.0 -5.5 11.160065241883679 10.340169943749475
* hornArPhys hornAr hornEllAr
TRC B000514 0.0 0.0 123.0 0.0 0.0 -5.5 10.340169943749475 9.321067811865476
* hornArPhys hornAr hornEllAr
TRC B000515 0.0 0.0 117.5 0.0 0.0 -5.5 9.321067811865476 8.127852522924732
* hornArPhys hornAr hornEllAr
TRC B000516 0.0 0.0 112.0 0.0 0.0 -5.5 8.127852522924732 6.789904997395469
* hornArPhys hornAr hornEllAr
TRC B000517 0.0 0.0 106.5 0.0 0.0 -5.5 6.789904997395469 5.340169943749476
* hornArPhys hornAr hornEllAr
TRC B000518 0.0 0.0 101.0 0.0 0.0 -5.5 5.340169943749476 3.81434465040231
* hornArPhys hornAr hornEllAr
TRC B000519 0.0 0.0 95.5 0.0 0.0 -5.5 3.81434465040231 2.2500000000000013
$start_transform T0006
* targetPhys targetCyl
ZCC B000601 0 0 0.6000000000000001
$end_transform
$start_transform T0006
* targetPhys targetCyl
XYP B000602 -45.0
$end_transform
$start_transform T0006
* targetPhys targetCyl
XYP B000603 45.0
$end_transform
$start_transform T0007
* aperturePhys AIR
ZCC B000701 0 0 15.0
$end_transform
$start_transform T0007
* aperturePhys AIR
XYP B000702 -0.1
$end_transform
$start_transform T0007
* aperturePhys AIR
XYP B000703 0.1
$end_transform
END
* hornArPhys
R0004 5 | +B000401 +B000403 -B000402 -B000404 -( +B000500) -( +B000501) -( +B000502) -( +B000503) -( +B000504) -(
        +B000505) -( +B000506) -( +B000507) -( +B000508) -( +B000509) -( +B000510) -( +B000511) -( +B000512) -( +B000513) -(
        +B000514) -( +B000515) -( +B000516) -( +B000517) -( +B000518) -( +B000519)
* hornConPhys
R0002 5 | +B000201 +B000203 -B000202 -B000204 -( +B000300) -( +B000301) -( +B000302) -( +B000303) -( +B000304) -(
        +B000305) -( +B000306) -( +B000307) -( +B000308) -( +B000309) -( +B000310) -( +B000311) -( +B000312) -( +B000313) -(
        +B000314) -( +B000315) -( +B000316) -( +B000317) -( +B000318) -( +B000319) -( +B000401 +B000403 -B000402 -B000404 -(
        +B000500) -( +B000501) -( +B000502) -( +B000503) -( +B000504) -( +B000505) -( +B000506) -( +B000507) -( +B000508) -(
        +B000509) -( +B000510) -( +B000511) -( +B000512) -( +B000513) -( +B000514) -( +B000515) -( +B000516) -( +B000517) -(
        +B000518) -( +B000519))
* targetPhys
R0006 5 | +B000601 +B000603 -B000602
* aperturePhys
R0007 5 | +B000701 +B000703 -B000702
BLKHOLE 5 | +BLKBODY -( +B000001)
R0000 5 | +B000001 -( +B000201 +B000203 -B000202 -B000204 -( +B000300) -( +B000301) -( +B000302) -( +B000303) -(
        +B000304) -( +B000305) -( +B000306) -( +B000307) -( +B000308) -( +B000309) -( +B000310) -( +B000311) -( +B000312) -(
        +B000313) -( +B000314) -( +B000315) -( +B000316) -( +B000317) -( +B000318) -( +B000319)) -( +B000601 +B000603 -B000602)
        -( +B000701 +B000703 -B000702)
END
GEOEND
FREE
*...+....1....+....2....+....3....+....4....+....5....+....6....+....7....+...
MATERIAL,7.0,,0.001165,,,,NITROGEN
MATERIAL,8.0,,0.001332,,,,OXYGEN
MATERIAL,,,0.001205,,,,AIR
COMPOUND,-0.76,NITROGEN,-0.24,OXYGEN,,,AIR
MATERIAL,18.0,,0.001662,,,,ARGON
MATERIAL,13.0,,2.7,,,,ALUMINUM
MATERIAL,6.0,,2.0,,,,CARBON
MATERIAL,6.0,,1.8,,,,GRAPHITE
LOW-MAT,GRAPHITE,6.0,-3,296,,,CARBON
ASSIGNMA, ARGON, R0004, , , 1.
ASSIGNMA ALUMINUM R0002
ASSIGNMA GRAPHITE R0006
ASSIGNMA AIR R0007
ASSIGNMA BLCKHOLE BLKHOLE
ASSIGNMA AIR R0000
ROT-DEFI,2000.0,0.0,0.0,0.0,0.0,100.0,T0002
ROT-DEFI,3000.0,0.0,0.0,0.0,0.0,100.0,T0004
ROT-DEFI,4000.0,0.0,0.0,0.0,0.0,45.0,T0006
ROT-DEFI, 5000.0, 0.0, 0.0, 0.0, 0.0, 200.10000000000002, T0007
PHYSICS, 1000.0, 1000.0, 1000.0, 1000.0, 1000.0, 1000.0, PEATHRES
PHYSICS, 3.0, , , , , , EVAPORAT
THRESHOL, , , 0.0, 0.0, , 0.0
PHYSICS, 1.0, , , , , , COALESCE
PHYSICS, 1.0, 0.001, 0.15, 2.0, 2.0, 3.0, IONSPLIT
IONTRANS, HEAVYION
SCORE, ENERGY
EVENTDAT, 60.0, , , , , , evt.txt
USRBIN, 11.0, ENERGY, -21.0, 25.00, 0.00, 210.00, EALL
USRBIN, 0.00, 0.00, -10.00, 250.00, 1.00, 220.00 &
USRBIN, 11.0, ENERGY, -22.0, 0.60, 0.00, 90.00, ETGT
USRBIN, 0.00, 0.00, 0.00, 60.00, 1.00, 90.00 &
USERDUMP, 100.0, 42.0, 3.0, 1.0, , , particles
OPEN, 41.0, , , , , , UNKNOWN
output.txt
RANDOMIZ, 1.0, 1.0
START, 5000.
STOP
